50 8
227 280
873 498
175 677
583 260
78 512
499 546
259 86
907 365
957 810
547 680
784 212
552 545
984 757
983 578
579 666
179 653
526 143
194 566
327 730
433 202
859 306
210 215
166 344
301 235
196 232
426 579
432 606
190 556
543 641
310 317
94 567
641 231
374 592
118 439
535 496
48 326
867 340
193 111
126 528
185 521
33 582
801 834
487 323
29 660
376 725
567 176
191 213
298 405
523 615
122 375
